(set-logic CHC_LIA)

(synth-fun state ((x_0 Bool) (x_1 Bool) (x_2 Bool) (x_3 Bool) (x_4 Bool) (x_5 Bool) (x_6 Bool) (x_7 Bool) (x_8 Bool) (x_9 Bool) (x_10 Bool) (x_11 Bool) (x_12 Bool) (x_13 Bool) (x_14 Int) (x_15 Int) (x_16 Int) (x_17 Int) (x_18 Int) (x_19 Int) (x_20 Int) (x_21 Int) (x_22 Int) (x_23 Int) (x_24 Int) (x_25 Int) (x_26 Int) (x_27 Int) (x_28 Int) (x_29 Int) (x_30 Int) (x_31 Int) (x_32 Int) (x_33 Int) (x_34 Int) (x_35 Int) (x_36 Int) (x_37 Int) (x_38 Int) (x_39 Int) (x_40 Int) (x_41 Int) (x_42 Int) (x_43 Int) (x_44 Int) (x_45 Int) (x_46 Int) (x_47 Int) (x_48 Int) (x_49 Int) (x_50 Bool) (x_51 Bool) (x_52 Int) (x_53 Int) (x_54 Int) (x_55 Int) (x_56 Int) (x_57 Int) (x_58 Int) (x_59 Int) (x_60 Int) (x_61 Int) (x_62 Int) (x_63 Int) (x_64 Int) (x_65 Bool) (x_66 Int) (x_67 Int) (x_68 Int) (x_69 Int) (x_70 Int) (x_71 Bool) (x_72 Bool) (x_73 Bool) (x_74 Int) (x_75 Bool) (x_76 Bool) (x_77 Bool) (x_78 Int) (x_79 Bool) (x_80 Bool) (x_81 Bool) (x_82 Int) (x_83 Int) (x_84 Int) (x_85 Int) (x_86 Int) (x_87 Int) (x_88 Int) (x_89 Int)) Bool)

(constraint (forall ((call_Sofar.flby__AT0 Bool) (call_Sofar.Sofar__AT0 Bool) (param_e2__AT0 Bool) (param_e1__AT0 Bool) (param_e3__AT0 Bool) (param_e4__AT0 Bool) (param_e5__AT0 Bool) (param_e6__AT0 Bool) (param_e7__AT0 Bool) (param_e8__AT0 Bool) (param_e9__AT0 Bool) (call_excludes9.excludes__AT0 Bool) (call_ticket3i.xite__AT0 Bool) (call_ticket3i.erreur_ticket3i__AT0 Bool) (call_ticket3i.flby8__AT0 Int) (call_ticket3i.a3__AT0 Int) (call_ticket3i.flby7__AT0 Int) (call_ticket3i.a2__AT0 Int) (call_ticket3i.flby6__AT0 Int) (call_ticket3i.a1__AT0 Int) (call_ticket3i.flby5__AT0 Int) (call_ticket3i.s__AT0 Int) (call_ticket3i.flby4__AT0 Int) (call_ticket3i.t__AT0 Int) (call_ticket3i.flby3__AT0 Int) (call_ticket3i.p3__AT0 Int) (call_ticket3i.flby2__AT0 Int) (call_ticket3i.p2__AT0 Int) (call_ticket3i.flby__AT0 Int) (call_ticket3i.p1__AT0 Int) (call_ticket3i.xite30__AT0 Int) (call_ticket3i.xite27__AT0 Int) (call_ticket3i.xite29__AT0 Int) (call_ticket3i.xite12__AT0 Int) (call_ticket3i.xite9__AT0 Int) (call_ticket3i.xite11__AT0 Int) (call_ticket3i.xite24__AT0 Int) (call_ticket3i.xite23__AT0 Int) (call_ticket3i.xite21__AT0 Int) (call_ticket3i.xite13__AT0 Int) (call_ticket3i.xite8__AT0 Int) (call_ticket3i.xite31__AT0 Int) (call_ticket3i.xite26__AT0 Int) (call_ticket3i.xite6__AT0 Int) (call_ticket3i.xite3__AT0 Int) (call_ticket3i.xite5__AT0 Int) (call_ticket3i.xite25__AT0 Int) (call_ticket3i.xite20__AT0 Int) (call_ticket3i.xite7__AT0 Int) (call_ticket3i.xite2__AT0 Int) (env__AT0 Bool) (erreur_ticket3i__AT0 Bool) (a3__AT0 Int) (a2__AT0 Int) (a1__AT0 Int) (s__AT0 Int) (t__AT0 Int) (p3__AT0 Int) (call_ticket3i.xite18__AT0 Int) (call_ticket3i.xite15__AT0 Int) (call_ticket3i.xite17__AT0 Int) (p2__AT0 Int) (p1__AT0 Int) (call_ticket3i.xite19__AT0 Int) (call_ticket3i.xite14__AT0 Int) (_OK___AT0 Bool) (param_init_t__AT0 Int) (param_init_a3__AT0 Int) (param_init_a2__AT0 Int) (param_init_a1__AT0 Int) (call_ticket3i.xite16__AT0 Int) (call_ticket3i.g9__AT0 Bool) (call_ticket3i.g8__AT0 Bool) (call_ticket3i.g7__AT0 Bool) (call_ticket3i.xite10__AT0 Int) (call_ticket3i.g6__AT0 Bool) (call_ticket3i.g5__AT0 Bool) (call_ticket3i.g4__AT0 Bool) (call_ticket3i.xite4__AT0 Int) (call_ticket3i.g3__AT0 Bool) (call_ticket3i.g2__AT0 Bool) (call_ticket3i.g1__AT0 Bool) (call_ticket3i.xite35__AT0 Int) (call_ticket3i.xite34__AT0 Int) (call_ticket3i.xite33__AT0 Int) (call_ticket3i.xite32__AT0 Int) (call_ticket3i.xite28__AT0 Int) (call_ticket3i.xite22__AT0 Int) (call_ticket3i.xite37__AT0 Int) (call_ticket3i.xite36__AT0 Int)) (let ((a!1 (and (and (and (not param_e2__AT0) (not param_e1__AT0)) (not param_e3__AT0)) (not param_e4__AT0))) (a!3 (and (not param_e9__AT0) (not param_e8__AT0) (not param_e7__AT0) (not param_e6__AT0) (not param_e5__AT0) (and (and (not param_e2__AT0) (not param_e1__AT0)) (not param_e3__AT0)) param_e4__AT0)) (a!6 (or (<= 3 call_ticket3i.p3__AT0) (and (<= 3 call_ticket3i.p2__AT0) (<= 3 call_ticket3i.p1__AT0))))) (let ((a!2 (and (and (and a!1 (not param_e5__AT0)) (not param_e6__AT0)) (not param_e7__AT0))) (a!4 (and (not param_e9__AT0) (not param_e8__AT0) (and (and a!1 (not param_e5__AT0)) (not param_e6__AT0)) param_e7__AT0))) (let ((a!5 (or (and (and a!2 (not param_e8__AT0)) (not param_e9__AT0)) (and (not param_e9__AT0) (not param_e8__AT0) (not param_e7__AT0) (not param_e6__AT0) (not param_e5__AT0) (not param_e4__AT0) (not param_e3__AT0) (not param_e2__AT0) param_e1__AT0) (and (not param_e9__AT0) (not param_e8__AT0) (not param_e7__AT0) (not param_e6__AT0) (not param_e5__AT0) (not param_e4__AT0) (not param_e3__AT0) param_e2__AT0 (not param_e1__AT0)) (and (not param_e9__AT0) (not param_e8__AT0) (not param_e7__AT0) (not param_e6__AT0) (not param_e5__AT0) (not param_e4__AT0) (and (not param_e2__AT0) (not param_e1__AT0)) param_e3__AT0) a!3 (and (not param_e9__AT0) (not param_e8__AT0) (not param_e7__AT0) (not param_e6__AT0) a!1 param_e5__AT0) (and (not param_e9__AT0) (not param_e8__AT0) (not param_e7__AT0) (and a!1 (not param_e5__AT0)) param_e6__AT0) a!4 (and (not param_e9__AT0) a!2 param_e8__AT0) (and (and a!2 (not param_e8__AT0)) param_e9__AT0)))) (let ((a!7 (and (= call_Sofar.flby__AT0 call_Sofar.Sofar__AT0) (= a!5 call_excludes9.excludes__AT0) (= call_ticket3i.xite__AT0 call_ticket3i.erreur_ticket3i__AT0) (= call_ticket3i.flby8__AT0 call_ticket3i.a3__AT0) (= call_ticket3i.flby7__AT0 call_ticket3i.a2__AT0) (= call_ticket3i.flby6__AT0 call_ticket3i.a1__AT0) (= call_ticket3i.flby5__AT0 call_ticket3i.s__AT0) (= call_ticket3i.flby4__AT0 call_ticket3i.t__AT0) (= call_ticket3i.flby3__AT0 call_ticket3i.p3__AT0) (= call_ticket3i.flby2__AT0 call_ticket3i.p2__AT0) (= call_ticket3i.flby__AT0 call_ticket3i.p1__AT0) (or call_ticket3i.xite__AT0 (not a!6)) (or a!6 (not call_ticket3i.xite__AT0)) (or (not param_e6__AT0) (= call_ticket3i.xite30__AT0 call_ticket3i.xite27__AT0)) (or param_e6__AT0 (= call_ticket3i.xite30__AT0 call_ticket3i.xite29__AT0)) (or (not param_e5__AT0) (= call_ticket3i.xite12__AT0 call_ticket3i.xite9__AT0)) (or param_e5__AT0 (= call_ticket3i.xite12__AT0 call_ticket3i.xite11__AT0)) (or param_e4__AT0 (= call_ticket3i.xite24__AT0 call_ticket3i.xite23__AT0)) (or (not param_e4__AT0) (= call_ticket3i.xite24__AT0 call_ticket3i.xite21__AT0)) (or (not param_e4__AT0) (= call_ticket3i.xite13__AT0 call_ticket3i.xite8__AT0)) (or param_e4__AT0 (= call_ticket3i.xite12__AT0 call_ticket3i.xite13__AT0)) (or (not param_e3__AT0) (= call_ticket3i.xite31__AT0 call_ticket3i.xite26__AT0)) (or param_e3__AT0 (= call_ticket3i.xite30__AT0 call_ticket3i.xite31__AT0)) (or (not param_e2__AT0) (= call_ticket3i.xite6__AT0 call_ticket3i.xite3__AT0)) (or param_e2__AT0 (= call_ticket3i.xite6__AT0 call_ticket3i.xite5__AT0)) (or param_e1__AT0 (= call_ticket3i.xite24__AT0 call_ticket3i.xite25__AT0)) (or (not param_e1__AT0) (= call_ticket3i.xite25__AT0 call_ticket3i.xite20__AT0)) (or (not param_e1__AT0) (= call_ticket3i.xite7__AT0 call_ticket3i.xite2__AT0)) (or param_e1__AT0 (= call_ticket3i.xite6__AT0 call_ticket3i.xite7__AT0)) (= call_Sofar.Sofar__AT0 env__AT0) (= call_ticket3i.erreur_ticket3i__AT0 erreur_ticket3i__AT0) (= call_ticket3i.a3__AT0 a3__AT0) (= call_ticket3i.a2__AT0 a2__AT0) (= call_ticket3i.a1__AT0 a1__AT0) (= call_ticket3i.s__AT0 s__AT0) (= call_ticket3i.t__AT0 t__AT0) (= call_ticket3i.p3__AT0 p3__AT0) (or (not param_e8__AT0) (= call_ticket3i.xite18__AT0 call_ticket3i.xite15__AT0)) (or param_e8__AT0 (= call_ticket3i.xite18__AT0 call_ticket3i.xite17__AT0)) (= call_ticket3i.p2__AT0 p2__AT0) (= call_ticket3i.p1__AT0 p1__AT0) (or (not param_e7__AT0) (= call_ticket3i.xite19__AT0 call_ticket3i.xite14__AT0)) (or param_e7__AT0 (= call_ticket3i.xite18__AT0 call_ticket3i.xite19__AT0)) (= (or (<= 0 t__AT0) (not env__AT0)) _OK___AT0) (= call_Sofar.flby__AT0 (and (<= 0 param_init_t__AT0) (<= 0 param_init_a3__AT0) (<= 0 param_init_a2__AT0) call_excludes9.excludes__AT0 (<= 0 param_init_a1__AT0))) (= call_ticket3i.flby8__AT0 param_init_a3__AT0) (= call_ticket3i.flby7__AT0 param_init_a2__AT0) (= call_ticket3i.flby6__AT0 param_init_a1__AT0) (= call_ticket3i.flby5__AT0 call_ticket3i.t__AT0) (= call_ticket3i.flby4__AT0 param_init_t__AT0) (= call_ticket3i.flby3__AT0 0) (= call_ticket3i.flby2__AT0 0) (= call_ticket3i.flby__AT0 0) (or (= call_ticket3i.xite16__AT0 0) (not call_ticket3i.g9__AT0)) (or (= call_ticket3i.xite15__AT0 2) (not call_ticket3i.g8__AT0)) (or (= call_ticket3i.xite14__AT0 1) (not call_ticket3i.g7__AT0)) (or (= call_ticket3i.xite10__AT0 0) (not call_ticket3i.g6__AT0)) (or (= call_ticket3i.xite9__AT0 2) (not call_ticket3i.g5__AT0)) (or (= call_ticket3i.xite8__AT0 1) (not call_ticket3i.g4__AT0)) (or (= call_ticket3i.xite4__AT0 0) (not call_ticket3i.g3__AT0)) (or (= call_ticket3i.xite3__AT0 2) (not call_ticket3i.g2__AT0)) (or (= call_ticket3i.xite2__AT0 1) (not call_ticket3i.g1__AT0)) (or (not param_e6__AT0) (= call_ticket3i.xite11__AT0 call_ticket3i.xite10__AT0)) (or (not param_e4__AT0) (= call_ticket3i.xite35__AT0 call_ticket3i.xite34__AT0)) (or (not param_e3__AT0) (= call_ticket3i.xite5__AT0 call_ticket3i.xite4__AT0)) (or (not param_e1__AT0) (= call_ticket3i.xite33__AT0 call_ticket3i.xite32__AT0)) (or (not param_e9__AT0) (= call_ticket3i.xite17__AT0 call_ticket3i.xite16__AT0)) (or (not param_e9__AT0) (= call_ticket3i.xite29__AT0 call_ticket3i.xite28__AT0)) (or (not param_e7__AT0) (= call_ticket3i.xite23__AT0 call_ticket3i.xite22__AT0)) (or (not param_e7__AT0) (= call_ticket3i.xite37__AT0 call_ticket3i.xite36__AT0))))) (=> a!7 (state call_Sofar.flby__AT0 call_Sofar.Sofar__AT0 param_e2__AT0 param_e1__AT0 param_e3__AT0 param_e4__AT0 param_e5__AT0 param_e6__AT0 param_e7__AT0 param_e8__AT0 param_e9__AT0 call_excludes9.excludes__AT0 call_ticket3i.xite__AT0 call_ticket3i.erreur_ticket3i__AT0 call_ticket3i.flby8__AT0 call_ticket3i.a3__AT0 call_ticket3i.flby7__AT0 call_ticket3i.a2__AT0 call_ticket3i.flby6__AT0 call_ticket3i.a1__AT0 call_ticket3i.flby5__AT0 call_ticket3i.s__AT0 call_ticket3i.flby4__AT0 call_ticket3i.t__AT0 call_ticket3i.flby3__AT0 call_ticket3i.p3__AT0 call_ticket3i.flby2__AT0 call_ticket3i.p2__AT0 call_ticket3i.flby__AT0 call_ticket3i.p1__AT0 call_ticket3i.xite30__AT0 call_ticket3i.xite27__AT0 call_ticket3i.xite29__AT0 call_ticket3i.xite12__AT0 call_ticket3i.xite9__AT0 call_ticket3i.xite11__AT0 call_ticket3i.xite24__AT0 call_ticket3i.xite23__AT0 call_ticket3i.xite21__AT0 call_ticket3i.xite13__AT0 call_ticket3i.xite8__AT0 call_ticket3i.xite31__AT0 call_ticket3i.xite26__AT0 call_ticket3i.xite6__AT0 call_ticket3i.xite3__AT0 call_ticket3i.xite5__AT0 call_ticket3i.xite25__AT0 call_ticket3i.xite20__AT0 call_ticket3i.xite7__AT0 call_ticket3i.xite2__AT0 env__AT0 erreur_ticket3i__AT0 a3__AT0 a2__AT0 a1__AT0 s__AT0 t__AT0 p3__AT0 call_ticket3i.xite18__AT0 call_ticket3i.xite15__AT0 call_ticket3i.xite17__AT0 p2__AT0 p1__AT0 call_ticket3i.xite19__AT0 call_ticket3i.xite14__AT0 _OK___AT0 param_init_t__AT0 param_init_a3__AT0 param_init_a2__AT0 param_init_a1__AT0 call_ticket3i.xite16__AT0 call_ticket3i.g9__AT0 call_ticket3i.g8__AT0 call_ticket3i.g7__AT0 call_ticket3i.xite10__AT0 call_ticket3i.g6__AT0 call_ticket3i.g5__AT0 call_ticket3i.g4__AT0 call_ticket3i.xite4__AT0 call_ticket3i.g3__AT0 call_ticket3i.g2__AT0 call_ticket3i.g1__AT0 call_ticket3i.xite35__AT0 call_ticket3i.xite34__AT0 call_ticket3i.xite33__AT0 call_ticket3i.xite32__AT0 call_ticket3i.xite28__AT0 call_ticket3i.xite22__AT0 call_ticket3i.xite37__AT0 call_ticket3i.xite36__AT0))))))))
(constraint (forall ((call_Sofar.flby__AT0 Bool) (call_Sofar.Sofar__AT0 Bool) (param_e2__AT0 Bool) (param_e1__AT0 Bool) (param_e3__AT0 Bool) (param_e4__AT0 Bool) (param_e5__AT0 Bool) (param_e6__AT0 Bool) (param_e7__AT0 Bool) (param_e8__AT0 Bool) (param_e9__AT0 Bool) (call_excludes9.excludes__AT0 Bool) (call_ticket3i.xite__AT0 Bool) (call_ticket3i.erreur_ticket3i__AT0 Bool) (call_ticket3i.flby8__AT0 Int) (call_ticket3i.a3__AT0 Int) (call_ticket3i.flby7__AT0 Int) (call_ticket3i.a2__AT0 Int) (call_ticket3i.flby6__AT0 Int) (call_ticket3i.a1__AT0 Int) (call_ticket3i.flby5__AT0 Int) (call_ticket3i.s__AT0 Int) (call_ticket3i.flby4__AT0 Int) (call_ticket3i.t__AT0 Int) (call_ticket3i.flby3__AT0 Int) (call_ticket3i.p3__AT0 Int) (call_ticket3i.flby2__AT0 Int) (call_ticket3i.p2__AT0 Int) (call_ticket3i.flby__AT0 Int) (call_ticket3i.p1__AT0 Int) (call_ticket3i.xite30__AT0 Int) (call_ticket3i.xite27__AT0 Int) (call_ticket3i.xite29__AT0 Int) (call_ticket3i.xite12__AT0 Int) (call_ticket3i.xite9__AT0 Int) (call_ticket3i.xite11__AT0 Int) (call_ticket3i.xite24__AT0 Int) (call_ticket3i.xite23__AT0 Int) (call_ticket3i.xite21__AT0 Int) (call_ticket3i.xite13__AT0 Int) (call_ticket3i.xite8__AT0 Int) (call_ticket3i.xite31__AT0 Int) (call_ticket3i.xite26__AT0 Int) (call_ticket3i.xite6__AT0 Int) (call_ticket3i.xite3__AT0 Int) (call_ticket3i.xite5__AT0 Int) (call_ticket3i.xite25__AT0 Int) (call_ticket3i.xite20__AT0 Int) (call_ticket3i.xite7__AT0 Int) (call_ticket3i.xite2__AT0 Int) (env__AT0 Bool) (erreur_ticket3i__AT0 Bool) (a3__AT0 Int) (a2__AT0 Int) (a1__AT0 Int) (s__AT0 Int) (t__AT0 Int) (p3__AT0 Int) (call_ticket3i.xite18__AT0 Int) (call_ticket3i.xite15__AT0 Int) (call_ticket3i.xite17__AT0 Int) (p2__AT0 Int) (p1__AT0 Int) (call_ticket3i.xite19__AT0 Int) (call_ticket3i.xite14__AT0 Int) (_OK___AT0 Bool) (param_init_t__AT0 Int) (param_init_a3__AT0 Int) (param_init_a2__AT0 Int) (param_init_a1__AT0 Int) (call_ticket3i.xite16__AT0 Int) (call_ticket3i.g9__AT0 Bool) (call_ticket3i.g8__AT0 Bool) (call_ticket3i.g7__AT0 Bool) (call_ticket3i.xite10__AT0 Int) (call_ticket3i.g6__AT0 Bool) (call_ticket3i.g5__AT0 Bool) (call_ticket3i.g4__AT0 Bool) (call_ticket3i.xite4__AT0 Int) (call_ticket3i.g3__AT0 Bool) (call_ticket3i.g2__AT0 Bool) (call_ticket3i.g1__AT0 Bool) (call_ticket3i.xite35__AT0 Int) (call_ticket3i.xite34__AT0 Int) (call_ticket3i.xite33__AT0 Int) (call_ticket3i.xite32__AT0 Int) (call_ticket3i.xite28__AT0 Int) (call_ticket3i.xite22__AT0 Int) (call_ticket3i.xite37__AT0 Int) (call_ticket3i.xite36__AT0 Int) (call_Sofar.Sofar__AT1 Bool) (call_Sofar.flby__AT1 Bool) (param_e2__AT1 Bool) (param_e1__AT1 Bool) (param_e3__AT1 Bool) (param_e4__AT1 Bool) (param_e5__AT1 Bool) (param_e6__AT1 Bool) (param_e7__AT1 Bool) (param_e8__AT1 Bool) (param_e9__AT1 Bool) (call_excludes9.excludes__AT1 Bool) (call_ticket3i.erreur_ticket3i__AT1 Bool) (call_ticket3i.xite__AT1 Bool) (call_ticket3i.a3__AT1 Int) (call_ticket3i.flby8__AT1 Int) (call_ticket3i.a2__AT1 Int) (call_ticket3i.flby7__AT1 Int) (call_ticket3i.a1__AT1 Int) (call_ticket3i.flby6__AT1 Int) (call_ticket3i.s__AT1 Int) (call_ticket3i.flby5__AT1 Int) (call_ticket3i.t__AT1 Int) (call_ticket3i.flby4__AT1 Int) (call_ticket3i.p3__AT1 Int) (call_ticket3i.flby3__AT1 Int) (call_ticket3i.p2__AT1 Int) (call_ticket3i.flby2__AT1 Int) (call_ticket3i.p1__AT1 Int) (call_ticket3i.flby__AT1 Int) (call_ticket3i.xite27__AT1 Int) (call_ticket3i.xite30__AT1 Int) (call_ticket3i.xite29__AT1 Int) (call_ticket3i.xite9__AT1 Int) (call_ticket3i.xite12__AT1 Int) (call_ticket3i.xite11__AT1 Int) (call_ticket3i.xite23__AT1 Int) (call_ticket3i.xite24__AT1 Int) (call_ticket3i.xite21__AT1 Int) (call_ticket3i.xite8__AT1 Int) (call_ticket3i.xite13__AT1 Int) (call_ticket3i.xite26__AT1 Int) (call_ticket3i.xite31__AT1 Int) (call_ticket3i.xite3__AT1 Int) (call_ticket3i.xite6__AT1 Int) (call_ticket3i.xite5__AT1 Int) (call_ticket3i.xite25__AT1 Int) (call_ticket3i.xite20__AT1 Int) (call_ticket3i.xite2__AT1 Int) (call_ticket3i.xite7__AT1 Int) (env__AT1 Bool) (erreur_ticket3i__AT1 Bool) (a3__AT1 Int) (a2__AT1 Int) (a1__AT1 Int) (s__AT1 Int) (t__AT1 Int) (p3__AT1 Int) (call_ticket3i.xite15__AT1 Int) (call_ticket3i.xite18__AT1 Int) (call_ticket3i.xite17__AT1 Int) (p2__AT1 Int) (p1__AT1 Int) (call_ticket3i.xite14__AT1 Int) (call_ticket3i.xite19__AT1 Int) (_OK___AT1 Bool) (param_init_t__AT1 Int) (param_init_a3__AT1 Int) (param_init_a2__AT1 Int) (param_init_a1__AT1 Int) (call_ticket3i.xite37__AT1 Int) (call_ticket3i.xite35__AT1 Int) (call_ticket3i.xite33__AT1 Int) (call_ticket3i.g9__AT1 Bool) (call_ticket3i.xite16__AT1 Int) (call_ticket3i.g8__AT1 Bool) (call_ticket3i.g7__AT1 Bool) (call_ticket3i.g6__AT1 Bool) (call_ticket3i.xite10__AT1 Int) (call_ticket3i.g5__AT1 Bool) (call_ticket3i.g4__AT1 Bool) (call_ticket3i.g3__AT1 Bool) (call_ticket3i.xite4__AT1 Int) (call_ticket3i.g2__AT1 Bool) (call_ticket3i.g1__AT1 Bool) (call_ticket3i.xite36__AT1 Int) (call_ticket3i.xite34__AT1 Int) (call_ticket3i.xite32__AT1 Int) (call_ticket3i.xite28__AT1 Int) (call_ticket3i.xite22__AT1 Int)) (let ((a!1 (and (and (and (not param_e2__AT0) (not param_e1__AT0)) (not param_e3__AT0)) (not param_e4__AT0))) (a!3 (and (not param_e9__AT0) (not param_e8__AT0) (not param_e7__AT0) (not param_e6__AT0) (not param_e5__AT0) (and (and (not param_e2__AT0) (not param_e1__AT0)) (not param_e3__AT0)) param_e4__AT0)) (a!6 (or (<= 3 call_ticket3i.p3__AT0) (and (<= 3 call_ticket3i.p2__AT0) (<= 3 call_ticket3i.p1__AT0)))) (a!7 (and (and (and (not param_e2__AT1) (not param_e1__AT1)) (not param_e3__AT1)) (not param_e4__AT1))) (a!9 (and (not param_e9__AT1) (not param_e8__AT1) (not param_e7__AT1) (not param_e6__AT1) (not param_e5__AT1) (and (and (not param_e2__AT1) (not param_e1__AT1)) (not param_e3__AT1)) param_e4__AT1)) (a!12 (or (<= 3 call_ticket3i.p3__AT1) (and (<= 3 call_ticket3i.p2__AT1) (<= 3 call_ticket3i.p1__AT1)))) (a!13 (= (+ call_ticket3i.s__AT0 (* (- 1) call_ticket3i.xite28__AT1)) (- 1))) (a!14 (= (+ call_ticket3i.s__AT0 (* (- 1) call_ticket3i.xite27__AT1)) (- 1))) (a!15 (= (+ call_ticket3i.s__AT0 (* (- 1) call_ticket3i.xite26__AT1)) (- 1))) (a!16 (= (+ call_ticket3i.t__AT0 (* (- 1) call_ticket3i.xite22__AT1)) (- 1))) (a!17 (= (+ call_ticket3i.t__AT0 (* (- 1) call_ticket3i.xite21__AT1)) (- 1))) (a!18 (= (+ call_ticket3i.t__AT0 (* (- 1) call_ticket3i.xite20__AT1)) (- 1)))) (let ((a!2 (and (and (and a!1 (not param_e5__AT0)) (not param_e6__AT0)) (not param_e7__AT0))) (a!4 (and (not param_e9__AT0) (not param_e8__AT0) (and (and a!1 (not param_e5__AT0)) (not param_e6__AT0)) param_e7__AT0)) (a!8 (and (and (and a!7 (not param_e5__AT1)) (not param_e6__AT1)) (not param_e7__AT1))) (a!10 (and (not param_e9__AT1) (not param_e8__AT1) (and (and a!7 (not param_e5__AT1)) (not param_e6__AT1)) param_e7__AT1))) (let ((a!5 (or (and (and a!2 (not param_e8__AT0)) (not param_e9__AT0)) (and (not param_e9__AT0) (not param_e8__AT0) (not param_e7__AT0) (not param_e6__AT0) (not param_e5__AT0) (not param_e4__AT0) (not param_e3__AT0) (not param_e2__AT0) param_e1__AT0) (and (not param_e9__AT0) (not param_e8__AT0) (not param_e7__AT0) (not param_e6__AT0) (not param_e5__AT0) (not param_e4__AT0) (not param_e3__AT0) param_e2__AT0 (not param_e1__AT0)) (and (not param_e9__AT0) (not param_e8__AT0) (not param_e7__AT0) (not param_e6__AT0) (not param_e5__AT0) (not param_e4__AT0) (and (not param_e2__AT0) (not param_e1__AT0)) param_e3__AT0) a!3 (and (not param_e9__AT0) (not param_e8__AT0) (not param_e7__AT0) (not param_e6__AT0) a!1 param_e5__AT0) (and (not param_e9__AT0) (not param_e8__AT0) (not param_e7__AT0) (and a!1 (not param_e5__AT0)) param_e6__AT0) a!4 (and (not param_e9__AT0) a!2 param_e8__AT0) (and (and a!2 (not param_e8__AT0)) param_e9__AT0))) (a!11 (or (and (and a!8 (not param_e8__AT1)) (not param_e9__AT1)) (and (not param_e9__AT1) (not param_e8__AT1) (not param_e7__AT1) (not param_e6__AT1) (not param_e5__AT1) (not param_e4__AT1) (not param_e3__AT1) (not param_e2__AT1) param_e1__AT1) (and (not param_e9__AT1) (not param_e8__AT1) (not param_e7__AT1) (not param_e6__AT1) (not param_e5__AT1) (not param_e4__AT1) (not param_e3__AT1) param_e2__AT1 (not param_e1__AT1)) (and (not param_e9__AT1) (not param_e8__AT1) (not param_e7__AT1) (not param_e6__AT1) (not param_e5__AT1) (not param_e4__AT1) (and (not param_e2__AT1) (not param_e1__AT1)) param_e3__AT1) a!9 (and (not param_e9__AT1) (not param_e8__AT1) (not param_e7__AT1) (not param_e6__AT1) a!7 param_e5__AT1) (and (not param_e9__AT1) (not param_e8__AT1) (not param_e7__AT1) (and a!7 (not param_e5__AT1)) param_e6__AT1) a!10 (and (not param_e9__AT1) a!8 param_e8__AT1) (and (and a!8 (not param_e8__AT1)) param_e9__AT1)))) (let ((a!19 (and (state call_Sofar.flby__AT0 call_Sofar.Sofar__AT0 param_e2__AT0 param_e1__AT0 param_e3__AT0 param_e4__AT0 param_e5__AT0 param_e6__AT0 param_e7__AT0 param_e8__AT0 param_e9__AT0 call_excludes9.excludes__AT0 call_ticket3i.xite__AT0 call_ticket3i.erreur_ticket3i__AT0 call_ticket3i.flby8__AT0 call_ticket3i.a3__AT0 call_ticket3i.flby7__AT0 call_ticket3i.a2__AT0 call_ticket3i.flby6__AT0 call_ticket3i.a1__AT0 call_ticket3i.flby5__AT0 call_ticket3i.s__AT0 call_ticket3i.flby4__AT0 call_ticket3i.t__AT0 call_ticket3i.flby3__AT0 call_ticket3i.p3__AT0 call_ticket3i.flby2__AT0 call_ticket3i.p2__AT0 call_ticket3i.flby__AT0 call_ticket3i.p1__AT0 call_ticket3i.xite30__AT0 call_ticket3i.xite27__AT0 call_ticket3i.xite29__AT0 call_ticket3i.xite12__AT0 call_ticket3i.xite9__AT0 call_ticket3i.xite11__AT0 call_ticket3i.xite24__AT0 call_ticket3i.xite23__AT0 call_ticket3i.xite21__AT0 call_ticket3i.xite13__AT0 call_ticket3i.xite8__AT0 call_ticket3i.xite31__AT0 call_ticket3i.xite26__AT0 call_ticket3i.xite6__AT0 call_ticket3i.xite3__AT0 call_ticket3i.xite5__AT0 call_ticket3i.xite25__AT0 call_ticket3i.xite20__AT0 call_ticket3i.xite7__AT0 call_ticket3i.xite2__AT0 env__AT0 erreur_ticket3i__AT0 a3__AT0 a2__AT0 a1__AT0 s__AT0 t__AT0 p3__AT0 call_ticket3i.xite18__AT0 call_ticket3i.xite15__AT0 call_ticket3i.xite17__AT0 p2__AT0 p1__AT0 call_ticket3i.xite19__AT0 call_ticket3i.xite14__AT0 _OK___AT0 param_init_t__AT0 param_init_a3__AT0 param_init_a2__AT0 param_init_a1__AT0 call_ticket3i.xite16__AT0 call_ticket3i.g9__AT0 call_ticket3i.g8__AT0 call_ticket3i.g7__AT0 call_ticket3i.xite10__AT0 call_ticket3i.g6__AT0 call_ticket3i.g5__AT0 call_ticket3i.g4__AT0 call_ticket3i.xite4__AT0 call_ticket3i.g3__AT0 call_ticket3i.g2__AT0 call_ticket3i.g1__AT0 call_ticket3i.xite35__AT0 call_ticket3i.xite34__AT0 call_ticket3i.xite33__AT0 call_ticket3i.xite32__AT0 call_ticket3i.xite28__AT0 call_ticket3i.xite22__AT0 call_ticket3i.xite37__AT0 call_ticket3i.xite36__AT0) (= call_Sofar.flby__AT0 call_Sofar.Sofar__AT0) (= a!5 call_excludes9.excludes__AT0) (= call_ticket3i.xite__AT0 call_ticket3i.erreur_ticket3i__AT0) (= call_ticket3i.flby8__AT0 call_ticket3i.a3__AT0) (= call_ticket3i.flby7__AT0 call_ticket3i.a2__AT0) (= call_ticket3i.flby6__AT0 call_ticket3i.a1__AT0) (= call_ticket3i.flby5__AT0 call_ticket3i.s__AT0) (= call_ticket3i.flby4__AT0 call_ticket3i.t__AT0) (= call_ticket3i.flby3__AT0 call_ticket3i.p3__AT0) (= call_ticket3i.flby2__AT0 call_ticket3i.p2__AT0) (= call_ticket3i.flby__AT0 call_ticket3i.p1__AT0) (or call_ticket3i.xite__AT0 (not a!6)) (or a!6 (not call_ticket3i.xite__AT0)) (or (not param_e6__AT0) (= call_ticket3i.xite30__AT0 call_ticket3i.xite27__AT0)) (or param_e6__AT0 (= call_ticket3i.xite30__AT0 call_ticket3i.xite29__AT0)) (or (not param_e5__AT0) (= call_ticket3i.xite12__AT0 call_ticket3i.xite9__AT0)) (or param_e5__AT0 (= call_ticket3i.xite12__AT0 call_ticket3i.xite11__AT0)) (or param_e4__AT0 (= call_ticket3i.xite24__AT0 call_ticket3i.xite23__AT0)) (or (not param_e4__AT0) (= call_ticket3i.xite24__AT0 call_ticket3i.xite21__AT0)) (or (not param_e4__AT0) (= call_ticket3i.xite13__AT0 call_ticket3i.xite8__AT0)) (or param_e4__AT0 (= call_ticket3i.xite12__AT0 call_ticket3i.xite13__AT0)) (or (not param_e3__AT0) (= call_ticket3i.xite31__AT0 call_ticket3i.xite26__AT0)) (or param_e3__AT0 (= call_ticket3i.xite30__AT0 call_ticket3i.xite31__AT0)) (or (not param_e2__AT0) (= call_ticket3i.xite6__AT0 call_ticket3i.xite3__AT0)) (or param_e2__AT0 (= call_ticket3i.xite6__AT0 call_ticket3i.xite5__AT0)) (or param_e1__AT0 (= call_ticket3i.xite24__AT0 call_ticket3i.xite25__AT0)) (or (not param_e1__AT0) (= call_ticket3i.xite25__AT0 call_ticket3i.xite20__AT0)) (or (not param_e1__AT0) (= call_ticket3i.xite7__AT0 call_ticket3i.xite2__AT0)) (or param_e1__AT0 (= call_ticket3i.xite6__AT0 call_ticket3i.xite7__AT0)) (= call_Sofar.Sofar__AT0 env__AT0) (= call_ticket3i.erreur_ticket3i__AT0 erreur_ticket3i__AT0) (= call_ticket3i.a3__AT0 a3__AT0) (= call_ticket3i.a2__AT0 a2__AT0) (= call_ticket3i.a1__AT0 a1__AT0) (= call_ticket3i.s__AT0 s__AT0) (= call_ticket3i.t__AT0 t__AT0) (= call_ticket3i.p3__AT0 p3__AT0) (or (not param_e8__AT0) (= call_ticket3i.xite18__AT0 call_ticket3i.xite15__AT0)) (or param_e8__AT0 (= call_ticket3i.xite18__AT0 call_ticket3i.xite17__AT0)) (= call_ticket3i.p2__AT0 p2__AT0) (= call_ticket3i.p1__AT0 p1__AT0) (or (not param_e7__AT0) (= call_ticket3i.xite19__AT0 call_ticket3i.xite14__AT0)) (or param_e7__AT0 (= call_ticket3i.xite18__AT0 call_ticket3i.xite19__AT0)) (= (or (<= 0 t__AT0) (not env__AT0)) _OK___AT0) (= call_Sofar.Sofar__AT1 call_Sofar.flby__AT1) (= a!11 call_excludes9.excludes__AT1) (= call_ticket3i.erreur_ticket3i__AT1 call_ticket3i.xite__AT1) (= call_ticket3i.a3__AT1 call_ticket3i.flby8__AT1) (= call_ticket3i.a2__AT1 call_ticket3i.flby7__AT1) (= call_ticket3i.a1__AT1 call_ticket3i.flby6__AT1) (= call_ticket3i.s__AT1 call_ticket3i.flby5__AT1) (= call_ticket3i.t__AT1 call_ticket3i.flby4__AT1) (= call_ticket3i.p3__AT1 call_ticket3i.flby3__AT1) (= call_ticket3i.p2__AT1 call_ticket3i.flby2__AT1) (= call_ticket3i.p1__AT1 call_ticket3i.flby__AT1) (or call_ticket3i.xite__AT1 (not a!12)) (or a!12 (not call_ticket3i.xite__AT1)) (or (not param_e6__AT1) (= call_ticket3i.xite27__AT1 call_ticket3i.xite30__AT1)) (or param_e6__AT1 (= call_ticket3i.xite30__AT1 call_ticket3i.xite29__AT1)) (or (not param_e5__AT1) (= call_ticket3i.xite9__AT1 call_ticket3i.xite12__AT1)) (or param_e5__AT1 (= call_ticket3i.xite12__AT1 call_ticket3i.xite11__AT1)) (or param_e4__AT1 (= call_ticket3i.xite23__AT1 call_ticket3i.xite24__AT1)) (or (not param_e4__AT1) (= call_ticket3i.xite24__AT1 call_ticket3i.xite21__AT1)) (or (not param_e4__AT1) (= call_ticket3i.xite8__AT1 call_ticket3i.xite13__AT1)) (or param_e4__AT1 (= call_ticket3i.xite12__AT1 call_ticket3i.xite13__AT1)) (or (not param_e3__AT1) (= call_ticket3i.xite26__AT1 call_ticket3i.xite31__AT1)) (or param_e3__AT1 (= call_ticket3i.xite30__AT1 call_ticket3i.xite31__AT1)) (or (not param_e2__AT1) (= call_ticket3i.xite3__AT1 call_ticket3i.xite6__AT1)) (or param_e2__AT1 (= call_ticket3i.xite6__AT1 call_ticket3i.xite5__AT1)) (or param_e1__AT1 (= call_ticket3i.xite24__AT1 call_ticket3i.xite25__AT1)) (or (not param_e1__AT1) (= call_ticket3i.xite25__AT1 call_ticket3i.xite20__AT1)) (or (not param_e1__AT1) (= call_ticket3i.xite2__AT1 call_ticket3i.xite7__AT1)) (or param_e1__AT1 (= call_ticket3i.xite6__AT1 call_ticket3i.xite7__AT1)) (= call_Sofar.Sofar__AT1 env__AT1) (= call_ticket3i.erreur_ticket3i__AT1 erreur_ticket3i__AT1) (= call_ticket3i.a3__AT1 a3__AT1) (= call_ticket3i.a2__AT1 a2__AT1) (= call_ticket3i.a1__AT1 a1__AT1) (= call_ticket3i.s__AT1 s__AT1) (= call_ticket3i.t__AT1 t__AT1) (= call_ticket3i.p3__AT1 p3__AT1) (or (not param_e8__AT1) (= call_ticket3i.xite15__AT1 call_ticket3i.xite18__AT1)) (or param_e8__AT1 (= call_ticket3i.xite18__AT1 call_ticket3i.xite17__AT1)) (= call_ticket3i.p2__AT1 p2__AT1) (= call_ticket3i.p1__AT1 p1__AT1) (or (not param_e7__AT1) (= call_ticket3i.xite14__AT1 call_ticket3i.xite19__AT1)) (or param_e7__AT1 (= call_ticket3i.xite18__AT1 call_ticket3i.xite19__AT1)) (= (or (<= 0 t__AT1) (not env__AT1)) _OK___AT1) (= call_Sofar.flby__AT1 (and call_Sofar.Sofar__AT0 (<= 0 param_init_t__AT1) (<= 0 param_init_a3__AT1) (<= 0 param_init_a2__AT1) call_excludes9.excludes__AT1 (<= 0 param_init_a1__AT1))) (= call_ticket3i.flby8__AT1 call_ticket3i.xite37__AT1) (= call_ticket3i.flby7__AT1 call_ticket3i.xite35__AT1) (= call_ticket3i.flby6__AT1 call_ticket3i.xite33__AT1) (= call_ticket3i.flby5__AT1 call_ticket3i.xite31__AT1) (= call_ticket3i.flby4__AT1 call_ticket3i.xite25__AT1) (= call_ticket3i.flby3__AT1 call_ticket3i.xite19__AT1) (= call_ticket3i.flby2__AT1 call_ticket3i.xite13__AT1) (= call_ticket3i.flby__AT1 call_ticket3i.xite7__AT1) (= (= call_ticket3i.p3__AT0 2) call_ticket3i.g9__AT1) (or (= call_ticket3i.xite16__AT1 0) (not call_ticket3i.g9__AT1)) (or (not call_ticket3i.g8__AT1) (= call_ticket3i.xite15__AT1 2)) (= call_ticket3i.g8__AT1 (and (<= call_ticket3i.a3__AT1 call_ticket3i.s__AT0) (= call_ticket3i.p3__AT0 1))) (or (= call_ticket3i.xite14__AT1 1) (not call_ticket3i.g7__AT1)) (= call_ticket3i.g7__AT1 (= call_ticket3i.p3__AT0 0)) (= (= call_ticket3i.p2__AT0 2) call_ticket3i.g6__AT1) (or (= call_ticket3i.xite10__AT1 0) (not call_ticket3i.g6__AT1)) (or (not call_ticket3i.g5__AT1) (= call_ticket3i.xite9__AT1 2)) (= call_ticket3i.g5__AT1 (and (<= call_ticket3i.a2__AT1 call_ticket3i.s__AT0) (= call_ticket3i.p2__AT0 1))) (or (= call_ticket3i.xite8__AT1 1) (not call_ticket3i.g4__AT1)) (= call_ticket3i.g4__AT1 (= call_ticket3i.p2__AT0 0)) (= (= call_ticket3i.p1__AT0 2) call_ticket3i.g3__AT1) (or (= call_ticket3i.xite4__AT1 0) (not call_ticket3i.g3__AT1)) (or (not call_ticket3i.g2__AT1) (= call_ticket3i.xite3__AT1 2)) (= call_ticket3i.g2__AT1 (and (<= call_ticket3i.a1__AT1 call_ticket3i.s__AT0) (= call_ticket3i.p1__AT0 1))) (or (= call_ticket3i.xite2__AT1 1) (not call_ticket3i.g1__AT1)) (= call_ticket3i.g1__AT1 (= call_ticket3i.p1__AT0 0)) (or call_ticket3i.g7__AT1 (= call_ticket3i.a3__AT0 call_ticket3i.xite36__AT1)) (or call_ticket3i.g4__AT1 (= call_ticket3i.a2__AT0 call_ticket3i.xite34__AT1)) (or call_ticket3i.g1__AT1 (= call_ticket3i.a1__AT0 call_ticket3i.xite32__AT1)) (or call_ticket3i.g9__AT1 (= call_ticket3i.s__AT0 call_ticket3i.xite28__AT1)) (or (not call_ticket3i.g9__AT1) a!13) (or call_ticket3i.g6__AT1 (= call_ticket3i.s__AT0 call_ticket3i.xite27__AT1)) (or (not call_ticket3i.g6__AT1) a!14) (or (not call_ticket3i.g3__AT1) a!15) (or call_ticket3i.g3__AT1 (= call_ticket3i.s__AT0 call_ticket3i.xite26__AT1)) (or (not call_ticket3i.g7__AT1) (= call_ticket3i.t__AT0 call_ticket3i.xite36__AT1)) (or (not call_ticket3i.g4__AT1) (= call_ticket3i.t__AT0 call_ticket3i.xite34__AT1)) (or (not call_ticket3i.g1__AT1) (= call_ticket3i.t__AT0 call_ticket3i.xite32__AT1)) (or call_ticket3i.g7__AT1 (= call_ticket3i.t__AT0 call_ticket3i.xite22__AT1)) (or (not call_ticket3i.g7__AT1) a!16) (or call_ticket3i.g4__AT1 (= call_ticket3i.t__AT0 call_ticket3i.xite21__AT1)) (or (not call_ticket3i.g4__AT1) a!17) (or (not call_ticket3i.g1__AT1) a!18) (or call_ticket3i.g1__AT1 (= call_ticket3i.t__AT0 call_ticket3i.xite20__AT1)) (or call_ticket3i.g9__AT1 (= call_ticket3i.p3__AT0 call_ticket3i.xite16__AT1)) (or call_ticket3i.g7__AT1 (= call_ticket3i.p3__AT0 call_ticket3i.xite14__AT1)) (or call_ticket3i.g8__AT1 (= call_ticket3i.p3__AT0 call_ticket3i.xite15__AT1)) (or call_ticket3i.g6__AT1 (= call_ticket3i.p2__AT0 call_ticket3i.xite10__AT1)) (or call_ticket3i.g4__AT1 (= call_ticket3i.p2__AT0 call_ticket3i.xite8__AT1)) (or call_ticket3i.g5__AT1 (= call_ticket3i.p2__AT0 call_ticket3i.xite9__AT1)) (or call_ticket3i.g3__AT1 (= call_ticket3i.p1__AT0 call_ticket3i.xite4__AT1)) (or call_ticket3i.g1__AT1 (= call_ticket3i.p1__AT0 call_ticket3i.xite2__AT1)) (or call_ticket3i.g2__AT1 (= call_ticket3i.p1__AT0 call_ticket3i.xite3__AT1)) (or (not param_e6__AT1) (= call_ticket3i.xite11__AT1 call_ticket3i.xite10__AT1)) (or param_e6__AT1 (= call_ticket3i.p2__AT0 call_ticket3i.xite11__AT1)) (or (not param_e4__AT1) (= call_ticket3i.xite35__AT1 call_ticket3i.xite34__AT1)) (or param_e4__AT1 (= call_ticket3i.a2__AT0 call_ticket3i.xite35__AT1)) (or (not param_e3__AT1) (= call_ticket3i.xite5__AT1 call_ticket3i.xite4__AT1)) (or param_e3__AT1 (= call_ticket3i.p1__AT0 call_ticket3i.xite5__AT1)) (or (not param_e1__AT1) (= call_ticket3i.xite33__AT1 call_ticket3i.xite32__AT1)) (or param_e1__AT1 (= call_ticket3i.a1__AT0 call_ticket3i.xite33__AT1)) (or param_e7__AT1 (= call_ticket3i.a3__AT0 call_ticket3i.xite37__AT1)) (or (not param_e7__AT1) (= call_ticket3i.xite37__AT1 call_ticket3i.xite36__AT1)) (or (not param_e7__AT1) (= call_ticket3i.xite23__AT1 call_ticket3i.xite22__AT1)) (or param_e7__AT1 (= call_ticket3i.t__AT0 call_ticket3i.xite23__AT1)) (or param_e9__AT1 (= call_ticket3i.s__AT0 call_ticket3i.xite29__AT1)) (or (not param_e9__AT1) (= call_ticket3i.xite29__AT1 call_ticket3i.xite28__AT1)) (or (not param_e9__AT1) (= call_ticket3i.xite17__AT1 call_ticket3i.xite16__AT1)) (or param_e9__AT1 (= call_ticket3i.p3__AT0 call_ticket3i.xite17__AT1))))) (=> a!19 (state call_Sofar.flby__AT1 call_Sofar.Sofar__AT1 param_e2__AT1 param_e1__AT1 param_e3__AT1 param_e4__AT1 param_e5__AT1 param_e6__AT1 param_e7__AT1 param_e8__AT1 param_e9__AT1 call_excludes9.excludes__AT1 call_ticket3i.xite__AT1 call_ticket3i.erreur_ticket3i__AT1 call_ticket3i.flby8__AT1 call_ticket3i.a3__AT1 call_ticket3i.flby7__AT1 call_ticket3i.a2__AT1 call_ticket3i.flby6__AT1 call_ticket3i.a1__AT1 call_ticket3i.flby5__AT1 call_ticket3i.s__AT1 call_ticket3i.flby4__AT1 call_ticket3i.t__AT1 call_ticket3i.flby3__AT1 call_ticket3i.p3__AT1 call_ticket3i.flby2__AT1 call_ticket3i.p2__AT1 call_ticket3i.flby__AT1 call_ticket3i.p1__AT1 call_ticket3i.xite30__AT1 call_ticket3i.xite27__AT1 call_ticket3i.xite29__AT1 call_ticket3i.xite12__AT1 call_ticket3i.xite9__AT1 call_ticket3i.xite11__AT1 call_ticket3i.xite24__AT1 call_ticket3i.xite23__AT1 call_ticket3i.xite21__AT1 call_ticket3i.xite13__AT1 call_ticket3i.xite8__AT1 call_ticket3i.xite31__AT1 call_ticket3i.xite26__AT1 call_ticket3i.xite6__AT1 call_ticket3i.xite3__AT1 call_ticket3i.xite5__AT1 call_ticket3i.xite25__AT1 call_ticket3i.xite20__AT1 call_ticket3i.xite7__AT1 call_ticket3i.xite2__AT1 env__AT1 erreur_ticket3i__AT1 a3__AT1 a2__AT1 a1__AT1 s__AT1 t__AT1 p3__AT1 call_ticket3i.xite18__AT1 call_ticket3i.xite15__AT1 call_ticket3i.xite17__AT1 p2__AT1 p1__AT1 call_ticket3i.xite19__AT1 call_ticket3i.xite14__AT1 _OK___AT1 param_init_t__AT1 param_init_a3__AT1 param_init_a2__AT1 param_init_a1__AT1 call_ticket3i.xite16__AT1 call_ticket3i.g9__AT1 call_ticket3i.g8__AT1 call_ticket3i.g7__AT1 call_ticket3i.xite10__AT1 call_ticket3i.g6__AT1 call_ticket3i.g5__AT1 call_ticket3i.g4__AT1 call_ticket3i.xite4__AT1 call_ticket3i.g3__AT1 call_ticket3i.g2__AT1 call_ticket3i.g1__AT1 call_ticket3i.xite35__AT1 call_ticket3i.xite34__AT1 call_ticket3i.xite33__AT1 call_ticket3i.xite32__AT1 call_ticket3i.xite28__AT1 call_ticket3i.xite22__AT1 call_ticket3i.xite37__AT1 call_ticket3i.xite36__AT1))))))))
(constraint (forall ((call_Sofar.flby__AT0 Bool) (call_Sofar.Sofar__AT0 Bool) (param_e2__AT0 Bool) (param_e1__AT0 Bool) (param_e3__AT0 Bool) (param_e4__AT0 Bool) (param_e5__AT0 Bool) (param_e6__AT0 Bool) (param_e7__AT0 Bool) (param_e8__AT0 Bool) (param_e9__AT0 Bool) (call_excludes9.excludes__AT0 Bool) (call_ticket3i.xite__AT0 Bool) (call_ticket3i.erreur_ticket3i__AT0 Bool) (call_ticket3i.flby8__AT0 Int) (call_ticket3i.a3__AT0 Int) (call_ticket3i.flby7__AT0 Int) (call_ticket3i.a2__AT0 Int) (call_ticket3i.flby6__AT0 Int) (call_ticket3i.a1__AT0 Int) (call_ticket3i.flby5__AT0 Int) (call_ticket3i.s__AT0 Int) (call_ticket3i.flby4__AT0 Int) (call_ticket3i.t__AT0 Int) (call_ticket3i.flby3__AT0 Int) (call_ticket3i.p3__AT0 Int) (call_ticket3i.flby2__AT0 Int) (call_ticket3i.p2__AT0 Int) (call_ticket3i.flby__AT0 Int) (call_ticket3i.p1__AT0 Int) (call_ticket3i.xite30__AT0 Int) (call_ticket3i.xite27__AT0 Int) (call_ticket3i.xite29__AT0 Int) (call_ticket3i.xite12__AT0 Int) (call_ticket3i.xite9__AT0 Int) (call_ticket3i.xite11__AT0 Int) (call_ticket3i.xite24__AT0 Int) (call_ticket3i.xite23__AT0 Int) (call_ticket3i.xite21__AT0 Int) (call_ticket3i.xite13__AT0 Int) (call_ticket3i.xite8__AT0 Int) (call_ticket3i.xite31__AT0 Int) (call_ticket3i.xite26__AT0 Int) (call_ticket3i.xite6__AT0 Int) (call_ticket3i.xite3__AT0 Int) (call_ticket3i.xite5__AT0 Int) (call_ticket3i.xite25__AT0 Int) (call_ticket3i.xite20__AT0 Int) (call_ticket3i.xite7__AT0 Int) (call_ticket3i.xite2__AT0 Int) (env__AT0 Bool) (erreur_ticket3i__AT0 Bool) (a3__AT0 Int) (a2__AT0 Int) (a1__AT0 Int) (s__AT0 Int) (t__AT0 Int) (p3__AT0 Int) (call_ticket3i.xite18__AT0 Int) (call_ticket3i.xite15__AT0 Int) (call_ticket3i.xite17__AT0 Int) (p2__AT0 Int) (p1__AT0 Int) (call_ticket3i.xite19__AT0 Int) (call_ticket3i.xite14__AT0 Int) (_OK___AT0 Bool) (param_init_t__AT0 Int) (param_init_a3__AT0 Int) (param_init_a2__AT0 Int) (param_init_a1__AT0 Int) (call_ticket3i.xite16__AT0 Int) (call_ticket3i.g9__AT0 Bool) (call_ticket3i.g8__AT0 Bool) (call_ticket3i.g7__AT0 Bool) (call_ticket3i.xite10__AT0 Int) (call_ticket3i.g6__AT0 Bool) (call_ticket3i.g5__AT0 Bool) (call_ticket3i.g4__AT0 Bool) (call_ticket3i.xite4__AT0 Int) (call_ticket3i.g3__AT0 Bool) (call_ticket3i.g2__AT0 Bool) (call_ticket3i.g1__AT0 Bool) (call_ticket3i.xite35__AT0 Int) (call_ticket3i.xite34__AT0 Int) (call_ticket3i.xite33__AT0 Int) (call_ticket3i.xite32__AT0 Int) (call_ticket3i.xite28__AT0 Int) (call_ticket3i.xite22__AT0 Int) (call_ticket3i.xite37__AT0 Int) (call_ticket3i.xite36__AT0 Int)) (=> (state call_Sofar.flby__AT0 call_Sofar.Sofar__AT0 param_e2__AT0 param_e1__AT0 param_e3__AT0 param_e4__AT0 param_e5__AT0 param_e6__AT0 param_e7__AT0 param_e8__AT0 param_e9__AT0 call_excludes9.excludes__AT0 call_ticket3i.xite__AT0 call_ticket3i.erreur_ticket3i__AT0 call_ticket3i.flby8__AT0 call_ticket3i.a3__AT0 call_ticket3i.flby7__AT0 call_ticket3i.a2__AT0 call_ticket3i.flby6__AT0 call_ticket3i.a1__AT0 call_ticket3i.flby5__AT0 call_ticket3i.s__AT0 call_ticket3i.flby4__AT0 call_ticket3i.t__AT0 call_ticket3i.flby3__AT0 call_ticket3i.p3__AT0 call_ticket3i.flby2__AT0 call_ticket3i.p2__AT0 call_ticket3i.flby__AT0 call_ticket3i.p1__AT0 call_ticket3i.xite30__AT0 call_ticket3i.xite27__AT0 call_ticket3i.xite29__AT0 call_ticket3i.xite12__AT0 call_ticket3i.xite9__AT0 call_ticket3i.xite11__AT0 call_ticket3i.xite24__AT0 call_ticket3i.xite23__AT0 call_ticket3i.xite21__AT0 call_ticket3i.xite13__AT0 call_ticket3i.xite8__AT0 call_ticket3i.xite31__AT0 call_ticket3i.xite26__AT0 call_ticket3i.xite6__AT0 call_ticket3i.xite3__AT0 call_ticket3i.xite5__AT0 call_ticket3i.xite25__AT0 call_ticket3i.xite20__AT0 call_ticket3i.xite7__AT0 call_ticket3i.xite2__AT0 env__AT0 erreur_ticket3i__AT0 a3__AT0 a2__AT0 a1__AT0 s__AT0 t__AT0 p3__AT0 call_ticket3i.xite18__AT0 call_ticket3i.xite15__AT0 call_ticket3i.xite17__AT0 p2__AT0 p1__AT0 call_ticket3i.xite19__AT0 call_ticket3i.xite14__AT0 _OK___AT0 param_init_t__AT0 param_init_a3__AT0 param_init_a2__AT0 param_init_a1__AT0 call_ticket3i.xite16__AT0 call_ticket3i.g9__AT0 call_ticket3i.g8__AT0 call_ticket3i.g7__AT0 call_ticket3i.xite10__AT0 call_ticket3i.g6__AT0 call_ticket3i.g5__AT0 call_ticket3i.g4__AT0 call_ticket3i.xite4__AT0 call_ticket3i.g3__AT0 call_ticket3i.g2__AT0 call_ticket3i.g1__AT0 call_ticket3i.xite35__AT0 call_ticket3i.xite34__AT0 call_ticket3i.xite33__AT0 call_ticket3i.xite32__AT0 call_ticket3i.xite28__AT0 call_ticket3i.xite22__AT0 call_ticket3i.xite37__AT0 call_ticket3i.xite36__AT0) false)))

(check-synth)

